(set-info :smt-lib-version 2.6)
(set-logic QF_AX)
(set-info :source |
Benchmarks used in the followin paper:
Big proof engines as little proof engines: new results on rewrite-based satisfiability procedure
Alessandro Armando, Maria Paola Bonacina, Silvio Ranise, Stephan Schulz. 
PDPAR'05
http://www.ai.dist.unige.it/pdpar05/


|)
(set-info :category "crafted")
(set-info :status unsat)
(declare-sort Index 0)
(declare-sort Element 0)
(declare-fun a_436 () (Array Index Element))
(declare-fun a_438 () (Array Index Element))
(declare-fun a_440 () (Array Index Element))
(declare-fun a_442 () (Array Index Element))
(declare-fun a_444 () (Array Index Element))
(declare-fun a_445 () (Array Index Element))
(declare-fun a_447 () (Array Index Element))
(declare-fun a_448 () (Array Index Element))
(declare-fun a_450 () (Array Index Element))
(declare-fun a_452 () (Array Index Element))
(declare-fun a_454 () (Array Index Element))
(declare-fun a_456 () (Array Index Element))
(declare-fun a_458 () (Array Index Element))
(declare-fun a_460 () (Array Index Element))
(declare-fun a_462 () (Array Index Element))
(declare-fun a_464 () (Array Index Element))
(declare-fun a_466 () (Array Index Element))
(declare-fun a_468 () (Array Index Element))
(declare-fun a_470 () (Array Index Element))
(declare-fun a_472 () (Array Index Element))
(declare-fun a_473 () (Array Index Element))
(declare-fun a_474 () (Array Index Element))
(declare-fun a_476 () (Array Index Element))
(declare-fun a_478 () (Array Index Element))
(declare-fun a_480 () (Array Index Element))
(declare-fun a_482 () (Array Index Element))
(declare-fun a_484 () (Array Index Element))
(declare-fun a_486 () (Array Index Element))
(declare-fun a_488 () (Array Index Element))
(declare-fun a_490 () (Array Index Element))
(declare-fun e_435 () Element)
(declare-fun e_437 () Element)
(declare-fun e_439 () Element)
(declare-fun e_441 () Element)
(declare-fun e_443 () Element)
(declare-fun e_446 () Element)
(declare-fun e_449 () Element)
(declare-fun e_451 () Element)
(declare-fun e_453 () Element)
(declare-fun e_455 () Element)
(declare-fun e_457 () Element)
(declare-fun e_459 () Element)
(declare-fun e_461 () Element)
(declare-fun e_463 () Element)
(declare-fun e_465 () Element)
(declare-fun e_467 () Element)
(declare-fun e_469 () Element)
(declare-fun e_471 () Element)
(declare-fun e_475 () Element)
(declare-fun e_477 () Element)
(declare-fun e_479 () Element)
(declare-fun e_481 () Element)
(declare-fun e_483 () Element)
(declare-fun e_485 () Element)
(declare-fun e_487 () Element)
(declare-fun e_489 () Element)
(declare-fun a1 () (Array Index Element))
(declare-fun i0 () Index)
(declare-fun i2 () Index)
(declare-fun i3 () Index)
(declare-fun i4 () Index)
(declare-fun i6 () Index)
(declare-fun i7 () Index)
(declare-fun i8 () Index)
(assert (= a_436 (store a1 i4 e_435)))
(assert (= a_438 (store a_436 i7 e_437)))
(assert (= a_440 (store a_438 i0 e_439)))
(assert (= a_442 (store a_440 i3 e_441)))
(assert (= a_444 (store a_442 i8 e_443)))
(assert (= a_445 (store a_444 i8 e_443)))
(assert (= a_447 (store a_445 i7 e_446)))
(assert (= a_448 (store a_447 i7 e_446)))
(assert (= a_450 (store a_448 i8 e_449)))
(assert (= a_452 (store a_450 i2 e_451)))
(assert (= a_454 (store a_452 i7 e_453)))
(assert (= a_456 (store a_454 i6 e_455)))
(assert (= a_458 (store a_456 i7 e_457)))
(assert (= a_460 (store a_458 i2 e_459)))
(assert (= a_462 (store a_460 i4 e_461)))
(assert (= a_464 (store a_462 i0 e_463)))
(assert (= a_466 (store a_464 i6 e_465)))
(assert (= a_468 (store a_466 i7 e_467)))
(assert (= a_470 (store a_468 i2 e_469)))
(assert (= a_472 (store a_470 i6 e_471)))
(assert (= a_473 (store a_452 i6 e_455)))
(assert (= a_474 (store a_473 i7 e_453)))
(assert (= a_476 (store a_474 i2 e_475)))
(assert (= a_478 (store a_476 i7 e_477)))
(assert (= a_480 (store a_478 i0 e_479)))
(assert (= a_482 (store a_480 i4 e_481)))
(assert (= a_484 (store a_482 i7 e_483)))
(assert (= a_486 (store a_484 i6 e_485)))
(assert (= a_488 (store a_486 i6 e_487)))
(assert (= a_490 (store a_488 i2 e_489)))
(assert (= e_435 (select a1 i7)))
(assert (= e_437 (select a1 i4)))
(assert (= e_439 (select a_438 i3)))
(assert (= e_441 (select a_438 i0)))
(assert (= e_443 (select a_442 i8)))
(assert (= e_446 (select a_445 i7)))
(assert (= e_449 (select a_448 i2)))
(assert (= e_451 (select a_448 i8)))
(assert (= e_453 (select a_452 i6)))
(assert (= e_455 (select a_452 i7)))
(assert (= e_457 (select a_456 i2)))
(assert (= e_459 (select a_456 i7)))
(assert (= e_461 (select a_460 i0)))
(assert (= e_463 (select a_460 i4)))
(assert (= e_465 (select a_464 i7)))
(assert (= e_467 (select a_464 i6)))
(assert (= e_469 (select a_468 i6)))
(assert (= e_471 (select a_468 i2)))
(assert (= e_475 (select a_474 i7)))
(assert (= e_477 (select a_474 i2)))
(assert (= e_479 (select a_478 i4)))
(assert (= e_481 (select a_478 i0)))
(assert (= e_483 (select a_482 i6)))
(assert (= e_485 (select a_482 i7)))
(assert (= e_487 (select a_486 i2)))
(assert (= e_489 (select a_486 i6)))
(assert (not (= a_472 a_490)))
(check-sat)
(exit)
